[ItemDuration]	DurationIdx	ItemType	Day	Hour
0	1	1	0	1
1	2	1	0	2
2	3	1	0	3
3	4	1	0	5
4	5	1	0	10
5	6	1	0	12
6	7	1	1	0
7	8	1	2	0
8	9	1	3	0
9	10	1	5	0
10	11	1	7	0
11	12	1	10	0
12	13	1	14	0
13	14	1	20	0
14	15	1	30	0
15	16	1	45	0
16	17	1	60	0
17	18	1	90	0
18	19	1	100	0
19	20	1	180	0
20	21	1	270	0
21	22	1	365	0
22	23	1	15	0
23	24	1	0	0
24	25	1	0	0
25	26	1	0	0
26	27	1	0	0
27	28	1	0	0
28	29	1	0	0
29	30	1	0	0
30	31	1	0	0
31	1	2	0	1
32	2	2	0	2
33	3	2	0	3
34	4	2	0	5
35	5	2	0	10
36	6	2	0	12
37	7	2	1	0
38	8	2	2	0
39	9	2	3	0
40	10	2	5	0
41	11	2	7	0
42	12	2	10	0
43	13	2	14	0
44	14	2	20	0
45	15	2	30	0
46	16	2	45	0
47	17	2	60	0
48	18	2	90	0
49	19	2	100	0
50	20	2	180	0
51	21	2	270	0
52	22	2	365	0
53	23	2	15	0
54	24	2	0	0
55	25	2	0	0
56	26	2	0	0
57	27	2	0	0
58	28	2	0	0
59	29	2	0	0
60	30	2	0	0
61	31	2	0	0
62	1	3	0	1
63	2	3	0	2
64	3	3	0	3
65	4	3	0	5
66	5	3	0	10
67	6	3	0	12
68	7	3	1	0
69	8	3	2	0
70	9	3	3	0
71	10	3	5	0
72	11	3	7	0
73	12	3	10	0
74	13	3	14	0
75	14	3	20	0
76	15	3	30	0
77	16	3	45	0
78	17	3	60	0
79	18	3	90	0
80	19	3	100	0
81	20	3	180	0
82	21	3	270	0
83	22	3	365	0
84	23	3	15	0
85	24	3	0	0
86	25	3	0	0
87	26	3	0	0
88	27	3	0	0
89	28	3	0	0
90	29	3	0	0
91	30	3	0	0
92	31	3	0	0
93	1	4	0	1
94	2	4	0	2
95	3	4	0	3
96	4	4	0	5
97	5	4	0	10
98	6	4	0	12
99	7	4	1	0
100	8	4	2	0
101	9	4	3	0
102	10	4	5	0
103	11	4	7	0
104	12	4	10	0
105	13	4	14	0
106	14	4	20	0
107	15	4	30	0
108	16	4	45	0
109	17	4	60	0
110	18	4	90	0
111	19	4	100	0
112	20	4	180	0
113	21	4	270	0
114	22	4	365	0
115	23	4	15	0
116	24	4	0	0
117	25	4	0	0
118	26	4	0	0
119	27	4	0	0
120	28	4	0	0
121	29	4	0	0
122	30	4	0	0
123	31	4	0	0
124	1	5	0	1
125	2	5	0	2
126	3	5	0	3
127	4	5	0	5
128	5	5	0	10
129	6	5	0	12
130	7	5	1	0
131	8	5	2	0
132	9	5	3	0
133	10	5	5	0
134	11	5	7	0
135	12	5	10	0
136	13	5	14	0
137	14	5	20	0
138	15	5	30	0
139	16	5	45	0
140	17	5	60	0
141	18	5	90	0
142	19	5	100	0
143	20	5	180	0
144	21	5	270	0
145	22	5	365	0
146	23	5	15	0
147	24	5	0	0
148	25	5	0	0
149	26	5	0	0
150	27	5	0	0
151	28	5	0	0
152	29	5	0	0
153	30	5	0	0
154	31	5	0	0
155	1	6	0	1
156	2	6	0	2
157	3	6	0	3
158	4	6	0	5
159	5	6	0	10
160	6	6	0	12
161	7	6	1	0
162	8	6	2	0
163	9	6	3	0
164	10	6	5	0
165	11	6	7	0
166	12	6	10	0
167	13	6	14	0
168	14	6	20	0
169	15	6	30	0
170	16	6	45	0
171	17	6	60	0
172	18	6	90	0
173	19	6	100	0
174	20	6	180	0
175	21	6	270	0
176	22	6	365	0
177	23	6	15	0
178	24	6	0	0
179	25	6	0	0
180	26	6	0	0
181	27	6	0	0
182	28	6	0	0
183	29	6	0	0
184	30	6	0	0
185	31	6	0	0
186	1	7	0	1
187	2	7	0	2
188	3	7	0	3
189	4	7	0	5
190	5	7	0	10
191	6	7	0	12
192	7	7	1	0
193	8	7	2	0
194	9	7	3	0
195	10	7	5	0
196	11	7	7	0
197	12	7	10	0
198	13	7	14	0
199	14	7	20	0
200	15	7	30	0
201	16	7	45	0
202	17	7	60	0
203	18	7	90	0
204	19	7	100	0
205	20	7	180	0
206	21	7	270	0
207	22	7	365	0
208	23	7	15	0
209	24	7	0	0
210	25	7	0	0
211	26	7	0	0
212	27	7	0	0
213	28	7	0	0
214	29	7	0	0
215	30	7	0	0
216	31	7	0	0
217	1	8	0	1
218	2	8	0	2
219	3	8	0	3
220	4	8	0	5
221	5	8	0	10
222	6	8	0	12
223	7	8	1	0
224	8	8	2	0
225	9	8	3	0
226	10	8	5	0
227	11	8	7	0
228	12	8	10	0
229	13	8	14	0
230	14	8	20	0
231	15	8	30	0
232	16	8	45	0
233	17	8	60	0
234	18	8	90	0
235	19	8	100	0
236	20	8	180	0
237	21	8	270	0
238	22	8	365	0
239	23	8	15	0
240	24	8	0	0
241	25	8	0	0
242	26	8	0	0
243	27	8	0	0
244	28	8	0	0
245	29	8	0	0
246	30	8	0	0
247	31	8	0	0
248	1	9	0	1
249	2	9	0	2
250	3	9	0	3
251	4	9	0	5
252	5	9	0	10
253	6	9	0	12
254	7	9	1	0
255	8	9	2	0
256	9	9	3	0
257	10	9	5	0
258	11	9	7	0
259	12	9	10	0
260	13	9	14	0
261	14	9	20	0
262	15	9	30	0
263	16	9	45	0
264	17	9	60	0
265	18	9	90	0
266	19	9	100	0
267	20	9	180	0
268	21	9	270	0
269	22	9	365	0
270	23	9	15	0
271	24	9	0	0
272	25	9	0	0
273	26	9	0	0
274	27	9	0	0
275	28	9	0	0
276	29	9	0	0
277	30	9	0	0
278	31	9	0	0
279	1	10	0	1
280	2	10	0	2
281	3	10	0	3
282	4	10	0	5
283	5	10	0	10
284	6	10	0	12
285	7	10	1	0
286	8	10	2	0
287	9	10	3	0
288	10	10	5	0
289	11	10	7	0
290	12	10	10	0
291	13	10	14	0
292	14	10	20	0
293	15	10	30	0
294	16	10	45	0
295	17	10	60	0
296	18	10	90	0
297	19	10	100	0
298	20	10	180	0
299	21	10	270	0
300	22	10	365	0
301	23	10	15	0
302	24	10	0	0
303	25	10	0	0
304	26	10	0	0
305	27	10	0	0
306	28	10	0	0
307	29	10	0	0
308	30	10	0	0
309	31	10	0	0
310	1	11	0	1
311	2	11	0	2
312	3	11	0	3
313	4	11	0	5
314	5	11	0	10
315	6	11	0	12
316	7	11	1	0
317	8	11	2	0
318	9	11	3	0
319	10	11	5	0
320	11	11	7	0
321	12	11	10	0
322	13	11	14	0
323	14	11	20	0
324	15	11	30	0
325	16	11	45	0
326	17	11	60	0
327	18	11	90	0
328	19	11	100	0
329	20	11	180	0
330	21	11	270	0
331	22	11	365	0
332	23	11	15	0
333	24	11	0	0
334	25	11	0	0
335	26	11	0	0
336	27	11	0	0
337	28	11	0	0
338	29	11	0	0
339	30	11	0	0
340	31	11	0	0
341	1	12	0	1
342	2	12	0	2
343	3	12	0	3
344	4	12	0	5
345	5	12	0	10
346	6	12	0	12
347	7	12	1	0
348	8	12	2	0
349	9	12	3	0
350	10	12	5	0
351	11	12	7	0
352	12	12	10	0
353	13	12	14	0
354	14	12	20	0
355	15	12	30	0
356	16	12	45	0
357	17	12	60	0
358	18	12	90	0
359	19	12	100	0
360	20	12	180	0
361	21	12	270	0
362	22	12	365	0
363	23	12	15	0
364	24	12	0	0
365	25	12	0	0
366	26	12	0	0
367	27	12	0	0
368	28	12	0	0
369	29	12	0	0
370	30	12	0	0
371	31	12	0	0
372	1	13	0	1
373	2	13	0	2
374	3	13	0	3
375	4	13	0	5
376	5	13	0	10
377	6	13	0	12
378	7	13	1	0
379	8	13	2	0
380	9	13	3	0
381	10	13	5	0
382	11	13	7	0
383	12	13	10	0
384	13	13	14	0
385	14	13	20	0
386	15	13	30	0
387	16	13	45	0
388	17	13	60	0
389	18	13	90	0
390	19	13	100	0
391	20	13	180	0
392	21	13	270	0
393	22	13	365	0
394	23	13	15	0
395	24	13	0	0
396	25	13	0	0
397	26	13	0	0
398	27	13	0	0
399	28	13	0	0
400	29	13	0	0
401	30	13	0	0
402	31	13	0	0
403	1	14	0	1
404	2	14	0	2
405	3	14	0	3
406	4	14	0	5
407	5	14	0	10
408	6	14	0	12
409	7	14	1	0
410	8	14	2	0
411	9	14	3	0
412	10	14	5	0
413	11	14	7	0
414	12	14	10	0
415	13	14	14	0
416	14	14	20	0
417	15	14	30	0
418	16	14	45	0
419	17	14	60	0
420	18	14	90	0
421	19	14	100	0
422	20	14	180	0
423	21	14	270	0
424	22	14	365	0
425	23	14	15	0
426	24	14	0	0
427	25	14	0	0
428	26	14	0	0
429	27	14	0	0
430	28	14	0	0
431	29	14	0	0
432	30	14	0	0
433	31	14	0	0
434	1	15	0	1
435	2	15	0	2
436	3	15	0	3
437	4	15	0	5
438	5	15	0	10
439	6	15	0	12
440	7	15	1	0
441	8	15	2	0
442	9	15	3	0
443	10	15	5	0
444	11	15	7	0
445	12	15	10	0
446	13	15	14	0
447	14	15	20	0
448	15	15	30	0
449	16	15	45	0
450	17	15	60	0
451	18	15	90	0
452	19	15	100	0
453	20	15	180	0
454	21	15	270	0
455	22	15	365	0
456	23	15	15	0
457	24	15	0	0
458	25	15	0	0
459	26	15	0	0
460	27	15	0	0
461	28	15	0	0
462	29	15	0	0
463	30	15	0	0
464	31	15	0	0
465	1	16	0	1
466	2	16	0	2
467	3	16	0	3
468	4	16	0	5
469	5	16	0	10
470	6	16	0	12
471	7	16	1	0
472	8	16	2	0
473	9	16	3	0
474	10	16	5	0
475	11	16	7	0
476	12	16	10	0
477	13	16	14	0
478	14	16	20	0
479	15	16	30	0
480	16	16	45	0
481	17	16	60	0
482	18	16	90	0
483	19	16	100	0
484	20	16	180	0
485	21	16	270	0
486	22	16	365	0
487	23	16	15	0
488	24	16	0	0
489	25	16	0	0
490	26	16	0	0
491	27	16	0	0
492	28	16	0	0
493	29	16	0	0
494	30	16	0	0
495	31	16	0	0
496	1	17	0	1
497	2	17	0	2
498	3	17	0	3
499	4	17	0	5
500	5	17	0	10
501	6	17	0	12
502	7	17	1	0
503	8	17	2	0
504	9	17	3	0
505	10	17	5	0
506	11	17	7	0
507	12	17	10	0
508	13	17	14	0
509	14	17	20	0
510	15	17	30	0
511	16	17	45	0
512	17	17	60	0
513	18	17	90	0
514	19	17	100	0
515	20	17	180	0
516	21	17	270	0
517	22	17	365	0
518	23	17	15	0
519	24	17	0	0
520	25	17	0	0
521	26	17	0	0
522	27	17	0	0
523	28	17	0	0
524	29	17	0	0
525	30	17	0	0
526	31	17	0	0
527	1	18	0	1
528	2	18	0	2
529	3	18	0	3
530	4	18	0	5
531	5	18	0	10
532	6	18	0	12
533	7	18	1	0
534	8	18	2	0
535	9	18	3	0
536	10	18	5	0
537	11	18	7	0
538	12	18	10	0
539	13	18	14	0
540	14	18	20	0
541	15	18	30	0
542	16	18	45	0
543	17	18	60	0
544	18	18	90	0
545	19	18	100	0
546	20	18	180	0
547	21	18	270	0
548	22	18	365	0
549	23	18	15	0
550	24	18	0	0
551	25	18	0	0
552	26	18	0	0
553	27	18	0	0
554	28	18	0	0
555	29	18	0	0
556	30	18	0	0
557	31	18	0	0
558	1	19	0	1
559	2	19	0	2
560	3	19	0	3
561	4	19	0	5
562	5	19	0	10
563	6	19	0	12
564	7	19	1	0
565	8	19	2	0
566	9	19	3	0
567	10	19	5	0
568	11	19	7	0
569	12	19	10	0
570	13	19	14	0
571	14	19	20	0
572	15	19	30	0
573	16	19	45	0
574	17	19	60	0
575	18	19	90	0
576	19	19	100	0
577	20	19	180	0
578	21	19	270	0
579	22	19	365	0
580	23	19	15	0
581	24	19	0	0
582	25	19	0	0
583	26	19	0	0
584	27	19	0	0
585	28	19	0	0
586	29	19	0	0
587	30	19	0	0
588	31	19	0	0
589	1	20	0	1
590	2	20	0	2
591	3	20	0	3
592	4	20	0	5
593	5	20	0	10
594	6	20	0	12
595	7	20	1	0
596	8	20	2	0
597	9	20	3	0
598	10	20	5	0
599	11	20	7	0
600	12	20	10	0
601	13	20	14	0
602	14	20	20	0
603	15	20	30	0
604	16	20	45	0
605	17	20	60	0
606	18	20	90	0
607	19	20	100	0
608	20	20	180	0
609	21	20	270	0
610	22	20	365	0
611	23	20	15	0
612	24	20	0	0
613	25	20	0	0
614	26	20	0	0
615	27	20	0	0
616	28	20	0	0
617	29	20	0	0
618	30	20	0	0
619	31	20	0	0
620	1	21	0	1
621	2	21	0	2
622	3	21	0	3
623	4	21	0	5
624	5	21	0	10
625	6	21	0	12
626	7	21	1	0
627	8	21	2	0
628	9	21	3	0
629	10	21	5	0
630	11	21	7	0
631	12	21	10	0
632	13	21	14	0
633	14	21	20	0
634	15	21	30	0
635	16	21	45	0
636	17	21	60	0
637	18	21	90	0
638	19	21	100	0
639	20	21	180	0
640	21	21	270	0
641	22	21	365	0
642	23	21	15	0
643	24	21	0	0
644	25	21	0	0
645	26	21	0	0
646	27	21	0	0
647	28	21	0	0
648	29	21	0	0
649	30	21	0	0
650	31	21	0	0
651	1	22	0	1
652	2	22	0	2
653	3	22	0	3
654	4	22	0	5
655	5	22	0	10
656	6	22	0	12
657	7	22	1	0
658	8	22	2	0
659	9	22	3	0
660	10	22	5	0
661	11	22	7	0
662	12	22	10	0
663	13	22	14	0
664	14	22	20	0
665	15	22	30	0
666	16	22	45	0
667	17	22	60	0
668	18	22	90	0
669	19	22	100	0
670	20	22	180	0
671	21	22	270	0
672	22	22	365	0
673	23	22	15	0
674	24	22	0	0
675	25	22	0	0
676	26	22	0	0
677	27	22	0	0
678	28	22	0	0
679	29	22	0	0
680	30	22	0	0
681	31	22	0	0
682	1	23	0	1
683	2	23	0	2
684	3	23	0	3
685	4	23	0	5
686	5	23	0	10
687	6	23	0	12
688	7	23	1	0
689	8	23	2	0
690	9	23	3	0
691	10	23	5	0
692	11	23	7	0
693	12	23	10	0
694	13	23	14	0
695	14	23	20	0
696	15	23	30	0
697	16	23	45	0
698	17	23	60	0
699	18	23	90	0
700	19	23	100	0
701	20	23	180	0
702	21	23	270	0
703	22	23	365	0
704	23	23	15	0
705	24	23	0	0
706	25	23	0	0
707	26	23	0	0
708	27	23	0	0
709	28	23	0	0
710	29	23	0	0
711	30	23	0	0
712	31	23	0	0
713	1	24	0	1
714	2	24	0	2
715	3	24	0	3
716	4	24	0	5
717	5	24	0	10
718	6	24	0	12
719	7	24	1	0
720	8	24	2	0
721	9	24	3	0
722	10	24	5	0
723	11	24	7	0
724	12	24	10	0
725	13	24	14	0
726	14	24	20	0
727	15	24	30	0
728	16	24	45	0
729	17	24	60	0
730	18	24	90	0
731	19	24	100	0
732	20	24	180	0
733	21	24	270	0
734	22	24	365	0
735	23	24	15	0
736	24	24	0	0
737	25	24	0	0
738	26	24	0	0
739	27	24	0	0
740	28	24	0	0
741	29	24	0	0
742	30	24	0	0
743	31	24	0	0
744	1	25	0	1
745	2	25	0	2
746	3	25	0	3
747	4	25	0	5
748	5	25	0	10
749	6	25	0	12
750	7	25	1	0
751	8	25	2	0
752	9	25	3	0
753	10	25	5	0
754	11	25	7	0
755	12	25	10	0
756	13	25	14	0
757	14	25	20	0
758	15	25	30	0
759	16	25	45	0
760	17	25	60	0
761	18	25	90	0
762	19	25	100	0
763	20	25	180	0
764	21	25	270	0
765	22	25	365	0
766	23	25	15	0
767	24	25	0	0
768	25	25	0	0
769	26	25	0	0
770	27	25	0	0
771	28	25	0	0
772	29	25	0	0
773	30	25	0	0
774	31	25	0	0
775	1	26	0	1
776	2	26	0	2
777	3	26	0	3
778	4	26	0	5
779	5	26	0	10
780	6	26	0	12
781	7	26	1	0
782	8	26	2	0
783	9	26	3	0
784	10	26	5	0
785	11	26	7	0
786	12	26	10	0
787	13	26	14	0
788	14	26	20	0
789	15	26	30	0
790	16	26	45	0
791	17	26	60	0
792	18	26	90	0
793	19	26	100	0
794	20	26	180	0
795	21	26	270	0
796	22	26	365	0
797	23	26	15	0
798	24	26	0	0
799	25	26	0	0
800	26	26	0	0
801	27	26	0	0
802	28	26	0	0
803	29	26	0	0
804	30	26	0	0
805	31	26	0	0
806	1	27	0	1
807	2	27	0	2
808	3	27	0	3
809	4	27	0	5
810	5	27	0	10
811	6	27	0	12
812	7	27	1	0
813	8	27	2	0
814	9	27	3	0
815	10	27	5	0
816	11	27	7	0
817	12	27	10	0
818	13	27	14	0
819	14	27	20	0
820	15	27	30	0
821	16	27	45	0
822	17	27	60	0
823	18	27	90	0
824	19	27	100	0
825	20	27	180	0
826	21	27	270	0
827	22	27	365	0
828	23	27	15	0
829	24	27	0	0
830	25	27	0	0
831	26	27	0	0
832	27	27	0	0
833	28	27	0	0
834	29	27	0	0
835	30	27	0	0
836	31	27	0	0
837	1	28	0	1
838	2	28	0	2
839	3	28	0	3
840	4	28	0	5
841	5	28	0	10
842	6	28	0	12
843	7	28	1	0
844	8	28	2	0
845	9	28	3	0
846	10	28	5	0
847	11	28	7	0
848	12	28	10	0
849	13	28	14	0
850	14	28	20	0
851	15	28	30	0
852	16	28	45	0
853	17	28	60	0
854	18	28	90	0
855	19	28	100	0
856	20	28	180	0
857	21	28	270	0
858	22	28	365	0
859	23	28	15	0
860	24	28	0	0
861	25	28	0	0
862	26	28	0	0
863	27	28	0	0
864	28	28	0	0
865	29	28	0	0
866	30	28	0	0
867	31	28	0	0
868	1	29	0	1
869	2	29	0	2
870	3	29	0	3
871	4	29	0	5
872	5	29	0	10
873	6	29	0	12
874	7	29	1	0
875	8	29	2	0
876	9	29	3	0
877	10	29	5	0
878	11	29	7	0
879	12	29	10	0
880	13	29	14	0
881	14	29	20	0
882	15	29	30	0
883	16	29	45	0
884	17	29	60	0
885	18	29	90	0
886	19	29	100	0
887	20	29	180	0
888	21	29	270	0
889	22	29	365	0
890	23	29	15	0
891	24	29	0	0
892	25	29	0	0
893	26	29	0	0
894	27	29	0	0
895	28	29	0	0
896	29	29	0	0
897	30	29	0	0
898	31	29	0	0
899	1	30	0	1
900	2	30	0	2
901	3	30	0	3
902	4	30	0	5
903	5	30	0	10
904	6	30	0	12
905	7	30	1	0
906	8	30	2	0
907	9	30	3	0
908	10	30	5	0
909	11	30	7	0
910	12	30	10	0
911	13	30	14	0
912	14	30	20	0
913	15	30	30	0
914	16	30	45	0
915	17	30	60	0
916	18	30	90	0
917	19	30	100	0
918	20	30	180	0
919	21	30	270	0
920	22	30	365	0
921	23	30	15	0
922	24	30	0	0
923	25	30	0	0
924	26	30	0	0
925	27	30	0	0
926	28	30	0	0
927	29	30	0	0
928	30	30	0	0
929	31	30	0	0
930	1	31	0	1
931	2	31	0	2
932	3	31	0	3
933	4	31	0	5
934	5	31	0	10
935	6	31	0	12
936	7	31	1	0
937	8	31	2	0
938	9	31	3	0
939	10	31	5	0
940	11	31	7	0
941	12	31	10	0
942	13	31	14	0
943	14	31	20	0
944	15	31	30	0
945	16	31	45	0
946	17	31	60	0
947	18	31	90	0
948	19	31	100	0
949	20	31	180	0
950	21	31	270	0
951	22	31	365	0
952	23	31	15	0
953	24	31	0	0
954	25	31	0	0
955	26	31	0	0
956	27	31	0	0
957	28	31	0	0
958	29	31	0	0
959	30	31	0	0
960	31	31	0	0
961	1	32	0	1
962	2	32	0	2
963	3	32	0	3
964	4	32	0	5
965	5	32	0	10
966	6	32	0	12
967	7	32	1	0
968	8	32	2	0
969	9	32	3	0
970	10	32	5	0
971	11	32	7	0
972	12	32	10	0
973	13	32	14	0
974	14	32	20	0
975	15	32	30	0
976	16	32	45	0
977	17	32	60	0
978	18	32	90	0
979	19	32	100	0
980	20	32	180	0
981	21	32	270	0
982	22	32	365	0
983	23	32	15	0
984	24	32	0	0
985	25	32	0	0
986	26	32	0	0
987	27	32	0	0
988	28	32	0	0
989	29	32	0	0
990	30	32	0	0
991	31	32	0	0
992	1	33	0	1
993	2	33	0	2
994	3	33	0	3
995	4	33	0	5
996	5	33	0	10
997	6	33	0	12
998	7	33	1	0
999	8	33	2	0
1000	9	33	3	0
1001	10	33	5	0
1002	11	33	7	0
1003	12	33	10	0
1004	13	33	14	0
1005	14	33	20	0
1006	15	33	30	0
1007	16	33	45	0
1008	17	33	60	0
1009	18	33	90	0
1010	19	33	100	0
1011	20	33	180	0
1012	21	33	270	0
1013	22	33	365	0
1014	23	33	15	0
1015	24	33	0	0
1016	25	33	0	0
1017	26	33	0	0
1018	27	33	0	0
1019	28	33	0	0
1020	29	33	0	0
1021	30	33	0	0
1022	31	33	0	0
1023	1	34	0	1
1024	2	34	0	2
1025	3	34	0	3
1026	4	34	0	5
1027	5	34	0	10
1028	6	34	0	12
1029	7	34	1	0
1030	8	34	2	0
1031	9	34	3	0
1032	10	34	5	0
1033	11	34	7	0
1034	12	34	10	0
1035	13	34	14	0
1036	14	34	20	0
1037	15	34	30	0
1038	16	34	45	0
1039	17	34	60	0
1040	18	34	90	0
1041	19	34	100	0
1042	20	34	180	0
1043	21	34	270	0
1044	22	34	365	0
1045	23	34	15	0
1046	24	34	0	0
1047	25	34	0	0
1048	26	34	0	0
1049	27	34	0	0
1050	28	34	0	0
1051	29	34	0	0
1052	30	34	0	0
1053	31	34	0	0
1054	1	35	0	1
1055	2	35	0	2
1056	3	35	0	3
1057	4	35	0	5
1058	5	35	0	10
1059	6	35	0	12
1060	7	35	1	0
1061	8	35	2	0
1062	9	35	3	0
1063	10	35	5	0
1064	11	35	7	0
1065	12	35	10	0
1066	13	35	14	0
1067	14	35	20	0
1068	15	35	30	0
1069	16	35	45	0
1070	17	35	60	0
1071	18	35	90	0
1072	19	35	100	0
1073	20	35	180	0
1074	21	35	270	0
1075	22	35	365	0
1076	23	35	15	0
1077	24	35	0	0
1078	25	35	0	0
1079	26	35	0	0
1080	27	35	0	0
1081	28	35	0	0
1082	29	35	0	0
1083	30	35	0	0
1084	31	35	0	0
1085	1	36	0	1
1086	2	36	0	2
1087	3	36	0	3
1088	4	36	0	5
1089	5	36	0	10
1090	6	36	0	12
1091	7	36	1	0
1092	8	36	2	0
1093	9	36	3	0
1094	10	36	5	0
1095	11	36	7	0
1096	12	36	10	0
1097	13	36	14	0
1098	14	36	20	0
1099	15	36	30	0
1100	16	36	45	0
1101	17	36	60	0
1102	18	36	90	0
1103	19	36	100	0
1104	20	36	180	0
1105	21	36	270	0
1106	22	36	365	0
1107	23	36	15	0
1108	24	36	0	0
1109	25	36	0	0
1110	26	36	0	0
1111	27	36	0	0
1112	28	36	0	0
1113	29	36	0	0
1114	30	36	0	0
1115	31	36	0	0
1116	1	37	0	1
1117	2	37	0	2
1118	3	37	0	3
1119	4	37	0	5
1120	5	37	0	10
1121	6	37	0	12
1122	7	37	1	0
1123	8	37	2	0
1124	9	37	3	0
1125	10	37	5	0
1126	11	37	7	0
1127	12	37	10	0
1128	13	37	14	0
1129	14	37	20	0
1130	15	37	30	0
1131	16	37	45	0
1132	17	37	60	0
1133	18	37	90	0
1134	19	37	100	0
1135	20	37	180	0
1136	21	37	270	0
1137	22	37	365	0
1138	23	37	15	0
1139	24	37	0	0
1140	25	37	0	0
1141	26	37	0	0
1142	27	37	0	0
1143	28	37	0	0
1144	29	37	0	0
1145	30	37	0	0
1146	31	37	0	0
1147	1	38	0	1
1148	2	38	0	2
1149	3	38	0	3
1150	4	38	0	5
1151	5	38	0	10
1152	6	38	0	12
1153	7	38	1	0
1154	8	38	2	0
1155	9	38	3	0
1156	10	38	5	0
1157	11	38	7	0
1158	12	38	10	0
1159	13	38	14	0
1160	14	38	20	0
1161	15	38	30	0
1162	16	38	45	0
1163	17	38	60	0
1164	18	38	90	0
1165	19	38	100	0
1166	20	38	180	0
1167	21	38	270	0
1168	22	38	365	0
1169	23	38	15	0
1170	24	38	0	0
1171	25	38	0	0
1172	26	38	0	0
1173	27	38	0	0
1174	28	38	0	0
1175	29	38	0	0
1176	30	38	0	0
1177	31	38	0	0
1178	1	39	0	1
1179	2	39	0	2
1180	3	39	0	3
1181	4	39	0	5
1182	5	39	0	10
1183	6	39	0	12
1184	7	39	1	0
1185	8	39	2	0
1186	9	39	3	0
1187	10	39	5	0
1188	11	39	7	0
1189	12	39	10	0
1190	13	39	14	0
1191	14	39	20	0
1192	15	39	30	0
1193	16	39	45	0
1194	17	39	60	0
1195	18	39	90	0
1196	19	39	100	0
1197	20	39	180	0
1198	21	39	270	0
1199	22	39	365	0
1200	23	39	15	0
1201	24	39	0	0
1202	25	39	0	0
1203	26	39	0	0
1204	27	39	0	0
1205	28	39	0	0
1206	29	39	0	0
1207	30	39	0	0
1208	31	39	0	0
1209	1	40	0	1
1210	2	40	0	2
1211	3	40	0	3
1212	4	40	0	5
1213	5	40	0	10
1214	6	40	0	12
1215	7	40	1	0
1216	8	40	2	0
1217	9	40	3	0
1218	10	40	5	0
1219	11	40	7	0
1220	12	40	10	0
1221	13	40	14	0
1222	14	40	20	0
1223	15	40	30	0
1224	16	40	45	0
1225	17	40	60	0
1226	18	40	90	0
1227	19	40	100	0
1228	20	40	180	0
1229	21	40	270	0
1230	22	40	365	0
1231	23	40	15	0
1232	24	40	0	0
1233	25	40	0	0
1234	26	40	0	0
1235	27	40	0	0
1236	28	40	0	0
1237	29	40	0	0
1238	30	40	0	0
1239	31	40	0	0
1240	1	41	0	1
1241	2	41	0	2
1242	3	41	0	3
1243	4	41	0	5
1244	5	41	0	10
1245	6	41	0	12
1246	7	41	1	0
1247	8	41	2	0
1248	9	41	3	0
1249	10	41	5	0
1250	11	41	7	0
1251	12	41	10	0
1252	13	41	14	0
1253	14	41	20	0
1254	15	41	30	0
1255	16	41	45	0
1256	17	41	60	0
1257	18	41	90	0
1258	19	41	100	0
1259	20	41	180	0
1260	21	41	270	0
1261	22	41	365	0
1262	23	41	15	0
1263	24	41	0	0
1264	25	41	0	0
1265	26	41	0	0
1266	27	41	0	0
1267	28	41	0	0
1268	29	41	0	0
1269	30	41	0	0
1270	31	41	0	0
1271	1	42	0	1
1272	2	42	0	2
1273	3	42	0	3
1274	4	42	0	5
1275	5	42	0	10
1276	6	42	0	12
1277	7	42	1	0
1278	8	42	2	0
1279	9	42	3	0
1280	10	42	5	0
1281	11	42	7	0
1282	12	42	10	0
1283	13	42	14	0
1284	14	42	20	0
1285	15	42	30	0
1286	16	42	45	0
1287	17	42	60	0
1288	18	42	90	0
1289	19	42	100	0
1290	20	42	180	0
1291	21	42	270	0
1292	22	42	365	0
1293	23	42	15	0
1294	24	42	0	0
1295	25	42	0	0
1296	26	42	0	0
1297	27	42	0	0
1298	28	42	0	0
1299	29	42	0	0
1300	30	42	0	0
1301	31	42	0	0
1302	1	43	0	1
1303	2	43	0	2
1304	3	43	0	3
1305	4	43	0	5
1306	5	43	0	10
1307	6	43	0	12
1308	7	43	1	0
1309	8	43	2	0
1310	9	43	3	0
1311	10	43	5	0
1312	11	43	7	0
1313	12	43	10	0
1314	13	43	14	0
1315	14	43	20	0
1316	15	43	30	0
1317	16	43	45	0
1318	17	43	60	0
1319	18	43	90	0
1320	19	43	100	0
1321	20	43	180	0
1322	21	43	270	0
1323	22	43	365	0
1324	23	43	15	0
1325	24	43	0	0
1326	25	43	0	0
1327	26	43	0	0
1328	27	43	0	0
1329	28	43	0	0
1330	29	43	0	0
1331	30	43	0	0
1332	31	43	0	0
1333	1	44	0	1
1334	2	44	0	2
1335	3	44	0	3
1336	4	44	0	5
1337	5	44	0	10
1338	6	44	0	12
1339	7	44	1	0
1340	8	44	2	0
1341	9	44	3	0
1342	10	44	5	0
1343	11	44	7	0
1344	12	44	10	0
1345	13	44	14	0
1346	14	44	20	0
1347	15	44	30	0
1348	16	44	45	0
1349	17	44	60	0
1350	18	44	90	0
1351	19	44	100	0
1352	20	44	180	0
1353	21	44	270	0
1354	22	44	365	0
1355	23	44	15	0
1356	24	44	0	0
1357	25	44	0	0
1358	26	44	0	0
1359	27	44	0	0
1360	28	44	0	0
1361	29	44	0	0
1362	30	44	0	0
1363	31	44	0	0
1364	1	45	0	1
1365	2	45	0	2
1366	3	45	0	3
1367	4	45	0	5
1368	5	45	0	10
1369	6	45	0	12
1370	7	45	1	0
1371	8	45	2	0
1372	9	45	3	0
1373	10	45	5	0
1374	11	45	7	0
1375	12	45	10	0
1376	13	45	14	0
1377	14	45	20	0
1378	15	45	30	0
1379	16	45	45	0
1380	17	45	60	0
1381	18	45	90	0
1382	19	45	100	0
1383	20	45	180	0
1384	21	45	270	0
1385	22	45	365	0
1386	23	45	15	0
1387	24	45	0	0
1388	25	45	0	0
1389	26	45	0	0
1390	27	45	0	0
1391	28	45	0	0
1392	29	45	0	0
1393	30	45	0	0
1394	31	45	0	0
1395	1	46	0	1
1396	2	46	0	2
1397	3	46	0	3
1398	4	46	0	5
1399	5	46	0	10
1400	6	46	0	12
1401	7	46	1	0
1402	8	46	2	0
1403	9	46	3	0
1404	10	46	5	0
1405	11	46	7	0
1406	12	46	10	0
1407	13	46	14	0
1408	14	46	20	0
1409	15	46	30	0
1410	16	46	45	0
1411	17	46	60	0
1412	18	46	90	0
1413	19	46	100	0
1414	20	46	180	0
1415	21	46	270	0
1416	22	46	365	0
1417	23	46	15	0
1418	24	46	0	0
1419	25	46	0	0
1420	26	46	0	0
1421	27	46	0	0
1422	28	46	0	0
1423	29	46	0	0
1424	30	46	0	0
1425	31	46	0	0
1426	1	47	0	1
1427	2	47	0	2
1428	3	47	0	3
1429	4	47	0	5
1430	5	47	0	10
1431	6	47	0	12
1432	7	47	1	0
1433	8	47	2	0
1434	9	47	3	0
1435	10	47	5	0
1436	11	47	7	0
1437	12	47	10	0
1438	13	47	14	0
1439	14	47	20	0
1440	15	47	30	0
1441	16	47	45	0
1442	17	47	60	0
1443	18	47	90	0
1444	19	47	100	0
1445	20	47	180	0
1446	21	47	270	0
1447	22	47	365	0
1448	23	47	15	0
1449	24	47	0	0
1450	25	47	0	0
1451	26	47	0	0
1452	27	47	0	0
1453	28	47	0	0
1454	29	47	0	0
1455	30	47	0	0
1456	31	47	0	0
1457	1	48	0	1
1458	2	48	0	2
1459	3	48	0	3
1460	4	48	0	5
1461	5	48	0	10
1462	6	48	0	12
1463	7	48	1	0
1464	8	48	2	0
1465	9	48	3	0
1466	10	48	5	0
1467	11	48	7	0
1468	12	48	10	0
1469	13	48	14	0
1470	14	48	20	0
1471	15	48	30	0
1472	16	48	45	0
1473	17	48	60	0
1474	18	48	90	0
1475	19	48	100	0
1476	20	48	180	0
1477	21	48	270	0
1478	22	48	365	0
1479	23	48	15	0
1480	24	48	0	0
1481	25	48	0	0
1482	26	48	0	0
1483	27	48	0	0
1484	28	48	0	0
1485	29	48	0	0
1486	30	48	0	0
1487	31	48	0	0
1488	1	50	0	1
1489	2	50	0	2
1490	3	50	0	3
1491	4	50	0	5
1492	5	50	0	10
1493	6	50	0	12
1494	7	50	1	0
1495	8	50	2	0
1496	9	50	3	0
1497	10	50	5	0
1498	11	50	7	0
1499	12	50	10	0
1500	13	50	14	0
1501	14	50	20	0
1502	15	50	30	0
1503	16	50	45	0
1504	17	50	60	0
1505	18	50	90	0
1506	19	50	100	0
1507	20	50	180	0
1508	21	50	270	0
1509	22	50	365	0
1510	23	50	15	0
1511	24	50	0	0
1512	25	50	0	0
1513	26	50	0	0
1514	27	50	0	0
1515	28	50	0	0
1516	29	50	0	0
1517	30	50	0	0
1518	31	50	0	0
1519	1	51	0	1
1520	2	51	0	2
1521	3	51	0	3
1522	4	51	0	5
1523	5	51	0	10
1524	6	51	0	12
1525	7	51	1	0
1526	8	51	2	0
1527	9	51	3	0
1528	10	51	5	0
1529	11	51	7	0
1530	12	51	10	0
1531	13	51	14	0
1532	14	51	20	0
1533	15	51	30	0
1534	16	51	45	0
1535	17	51	60	0
1536	18	51	90	0
1537	19	51	100	0
1538	20	51	180	0
1539	21	51	270	0
1540	22	51	365	0
1541	23	51	15	0
1542	24	51	0	0
1543	25	51	0	0
1544	26	51	0	0
1545	27	51	0	0
1546	28	51	0	0
1547	29	51	0	0
1548	30	51	0	0
1549	31	51	0	0
1550	1	52	0	1
1551	2	52	0	2
1552	3	52	0	3
1553	4	52	0	5
1554	5	52	0	10
1555	6	52	0	12
1556	7	52	1	0
1557	8	52	2	0
1558	9	52	3	0
1559	10	52	5	0
1560	11	52	7	0
1561	12	52	10	0
1562	13	52	14	0
1563	14	52	20	0
1564	15	52	30	0
1565	16	52	45	0
1566	17	52	60	0
1567	18	52	90	0
1568	19	52	100	0
1569	20	52	180	0
1570	21	52	270	0
1571	22	52	365	0
1572	23	52	15	0
1573	24	52	0	0
1574	25	52	0	0
1575	26	52	0	0
1576	27	52	0	0
1577	28	52	0	0
1578	29	52	0	0
1579	30	52	0	0
1580	31	52	0	0
1581	1	53	0	1
1582	2	53	0	2
1583	3	53	0	3
1584	4	53	0	5
1585	5	53	0	10
1586	6	53	0	12
1587	7	53	1	0
1588	8	53	2	0
1589	9	53	3	0
1590	10	53	5	0
1591	11	53	7	0
1592	12	53	10	0
1593	13	53	14	0
1594	14	53	20	0
1595	15	53	30	0
1596	16	53	45	0
1597	17	53	60	0
1598	18	53	90	0
1599	19	53	100	0
1600	20	53	180	0
1601	21	53	270	0
1602	22	53	365	0
1603	23	53	15	0
1604	24	53	0	0
1605	25	53	0	0
1606	26	53	0	0
1607	27	53	0	0
1608	28	53	0	0
1609	29	53	0	0
1610	30	53	0	0
1611	31	53	0	0
1612	1	54	0	1
1613	2	54	0	2
1614	3	54	0	3
1615	4	54	0	5
1616	5	54	0	10
1617	6	54	0	12
1618	7	54	1	0
1619	8	54	2	0
1620	9	54	3	0
1621	10	54	5	0
1622	11	54	7	0
1623	12	54	10	0
1624	13	54	14	0
1625	14	54	20	0
1626	15	54	30	0
1627	16	54	45	0
1628	17	54	60	0
1629	18	54	90	0
1630	19	54	100	0
1631	20	54	180	0
1632	21	54	270	0
1633	22	54	365	0
1634	23	54	15	0
1635	24	54	0	0
1636	25	54	0	0
1637	26	54	0	0
1638	27	54	0	0
1639	28	54	0	0
1640	29	54	0	0
1641	30	54	0	0
1642	31	54	0	0
1643	1	55	0	1
1644	2	55	0	2
1645	3	55	0	3
1646	4	55	0	5
1647	5	55	0	10
1648	6	55	0	12
1649	7	55	1	0
1650	8	55	2	0
1651	9	55	3	0
1652	10	55	5	0
1653	11	55	7	0
1654	12	55	10	0
1655	13	55	14	0
1656	14	55	20	0
1657	15	55	30	0
1658	16	55	45	0
1659	17	55	60	0
1660	18	55	90	0
1661	19	55	100	0
1662	20	55	180	0
1663	21	55	270	0
1664	22	55	365	0
1665	23	55	15	0
1666	24	55	0	0
1667	25	55	0	0
1668	26	55	0	0
1669	27	55	0	0
1670	28	55	0	0
1671	29	55	0	0
1672	30	55	0	0
1673	31	55	0	0
1674	1	56	0	1
1675	2	56	0	2
1676	3	56	0	3
1677	4	56	0	5
1678	5	56	0	10
1679	6	56	0	12
1680	7	56	1	0
1681	8	56	2	0
1682	9	56	3	0
1683	10	56	5	0
1684	11	56	7	0
1685	12	56	10	0
1686	13	56	14	0
1687	14	56	20	0
1688	15	56	30	0
1689	16	56	45	0
1690	17	56	60	0
1691	18	56	90	0
1692	19	56	100	0
1693	20	56	180	0
1694	21	56	270	0
1695	22	56	365	0
1696	23	56	15	0
1697	24	56	0	0
1698	25	56	0	0
1699	26	56	0	0
1700	27	56	0	0
1701	28	56	0	0
1702	29	56	0	0
1703	30	56	0	0
1704	31	56	0	0
1705	1	57	0	1
1706	2	57	0	2
1707	3	57	0	3
1708	4	57	0	5
1709	5	57	0	10
1710	6	57	0	12
1711	7	57	1	0
1712	8	57	2	0
1713	9	57	3	0
1714	10	57	5	0
1715	11	57	7	0
1716	12	57	10	0
1717	13	57	14	0
1718	14	57	20	0
1719	15	57	30	0
1720	16	57	45	0
1721	17	57	60	0
1722	18	57	90	0
1723	19	57	100	0
1724	20	57	180	0
1725	21	57	270	0
1726	22	57	365	0
1727	23	57	15	0
1728	24	57	0	0
1729	25	57	0	0
1730	26	57	0	0
1731	27	57	0	0
1732	28	57	0	0
1733	29	57	0	0
1734	30	57	0	0
1735	31	57	0	0
1736	1	58	0	1
1737	2	58	0	2
1738	3	58	0	3
1739	4	58	0	5
1740	5	58	0	10
1741	6	58	0	12
1742	7	58	1	0
1743	8	58	2	0
1744	9	58	3	0
1745	10	58	5	0
1746	11	58	7	0
1747	12	58	10	0
1748	13	58	14	0
1749	14	58	20	0
1750	15	58	30	0
1751	16	58	45	0
1752	17	58	60	0
1753	18	58	90	0
1754	19	58	100	0
1755	20	58	180	0
1756	21	58	270	0
1757	22	58	365	0
1758	23	58	15	0
1759	24	58	0	0
1760	25	58	0	0
1761	26	58	0	0
1762	27	58	0	0
1763	28	58	0	0
1764	29	58	0	0
1765	30	58	0	0
1766	31	58	0	0